75
300
208	1
207	3
206	1
205	1
204	1
203	1
202	2
197	1
196	1
195	1
191	2
189	1
185	1
180	2
179	2
173	2
168	1
167	1
165	1
164	1
163	1
162	2
157	1
155	1
154	1
152	1
149	1
146	2
145	1
144	1
139	1
137	1
135	3
132	1
131	1
127	2
126	1
124	1
121	1
120	1
119	1
118	2
117	1
116	1
115	1
107	2
104	2
103	3
102	1
101	1
100	2
99	1
97	1
93	1
90	1
89	2
88	1
87	1
86	2
85	1
84	1
80	1
79	1
78	1
76	2
73	1
72	1
71	2
70	1
68	1
67	2
65	1
64	1
62	2
61	2
